k = 18;
b = 9;
AtomicConstraints =  [|
3, 1|
	3, 2|
	4, 1|
	4, 2|
	5, 1|
	5, 2|
	5, 3|
	5, 4|
	6, 1|
	6, 2|
	6, 3|
	6, 4|
	7, 1|
	7, 2|
	7, 3|
	7, 4|
	7, 5|
	7, 6|
	8, 1|
	8, 2|
	8, 3|
	8, 4|
	8, 5|
	8, 6|
	9, 1|
	9, 2|
	9, 3|
	9, 4|
	9, 5|
	9, 6|
	9, 8|
	17, 15|
	17, 12|
	17, 11|
	16, 15|
	16, 14|
	16, 12|
	16, 13|
	16, 11|
	16, 10|
	15, 12|
	15, 11|
	14, 12|
	14, 13|
	14, 11|
	14, 10|
	12, 11|
	13, 11|
	13, 10|
	18, 17|
	18, 15|
	18, 12|
	18, 11|];
DisjunctiveConstraints =  [|17, 11, 17, 2|
	16, 10, 16, 1|
	15, 11, 15, 2|
	14, 10, 14, 1|
	18, 15, 18, 6|
	18, 12, 18, 3|
	18, 11, 18, 2|];
SoftAtomicConstraints =  [|
2, 1|
4, 3|
6, 5|
8, 7|
10, 11|
13, 12|
14, 15|
16, 17|];
DirectSuccessors =  [];
